n_machines = 5;
n_resources = 6;
n_jobs = 78;
horizon = 421;
LB = 113;
n_jobs_per_resource = [16, 10, 6, 19, 10, 17];
duration = [4, 7, 3, 9, 6, 1, 9, 1, 9, 9, 8, 5, 5, 7, 5, 4, 3, 3, 8, 1, 6, 5, 7, 5, 7, 9, 8, 2, 6, 6, 7, 5, 1, 8, 9, 9, 2, 7, 8, 5, 4, 7, 4, 3, 8, 7, 8, 5, 8, 2, 8, 6, 3, 5, 4, 6, 7, 4, 3, 3, 6, 6, 1, 4, 3, 1, 1, 3, 8, 8, 1, 9, 6, 6, 9, 7, 6, 2]